Generations:
0: ((64, 62, 67, 1, 16, 13, 37, 33, 2, 70, 45, 8, 18, 46, 36, 20, 17, 56, 23, 61, 53, 60, 47, 3, 58, 74, 31, 40, 7, 30, 42, 68, 73, 4, 63, 66, 19, 11, 51, 52, 49, 44, 10, 55, 35, 0, 25, 14, 50, 71, 69, 15, 6, 9, 28, 54, 32, 12, 59, 39, 26, 43, 48, 38, 34, 57, 72, 24, 22, 27, 29, 21, 5, 65, 41), 1386)
1: ((64, 62, 67, 1, 16, 13, 37, 33, 2, 70, 45, 8, 18, 46, 36, 20, 17, 56, 23, 61, 53, 60, 47, 3, 58, 74, 31, 40, 7, 30, 42, 68, 73, 4, 63, 66, 19, 11, 51, 52, 49, 44, 10, 55, 35, 0, 25, 14, 50, 71, 69, 15, 6, 9, 28, 54, 32, 12, 59, 39, 26, 43, 48, 38, 34, 57, 72, 24, 22, 27, 29, 21, 5, 65, 41), 1386)
2: ((64, 62, 67, 1, 16, 13, 37, 33, 2, 70, 45, 8, 18, 46, 36, 20, 17, 56, 23, 61, 53, 60, 47, 3, 58, 74, 31, 40, 7, 30, 42, 68, 73, 4, 63, 66, 19, 11, 51, 52, 49, 44, 10, 55, 35, 0, 25, 14, 50, 71, 69, 15, 6, 9, 28, 54, 32, 12, 59, 39, 26, 43, 48, 38, 34, 57, 72, 24, 22, 27, 29, 21, 5, 65, 41), 1386)
3: ((64, 62, 67, 1, 16, 13, 37, 33, 2, 70, 45, 8, 18, 46, 36, 20, 17, 56, 23, 61, 53, 60, 47, 3, 58, 74, 31, 40, 7, 30, 42, 68, 73, 4, 63, 66, 19, 11, 51, 52, 49, 44, 10, 55, 35, 0, 25, 14, 50, 71, 69, 15, 6, 9, 28, 54, 32, 12, 59, 39, 26, 43, 48, 38, 34, 57, 72, 24, 22, 27, 29, 21, 5, 65, 41), 1386)
4: ((64, 62, 67, 1, 16, 13, 37, 33, 2, 70, 45, 8, 18, 46, 36, 20, 17, 56, 23, 61, 53, 60, 47, 3, 58, 74, 31, 40, 7, 30, 42, 68, 73, 4, 63, 66, 19, 11, 51, 52, 49, 44, 10, 55, 35, 0, 25, 14, 50, 71, 69, 15, 6, 9, 28, 54, 32, 12, 59, 39, 26, 43, 48, 38, 34, 57, 72, 24, 22, 27, 29, 21, 5, 65, 41), 1386)
5: ((64, 62, 67, 1, 16, 13, 37, 33, 2, 70, 45, 8, 18, 46, 36, 20, 17, 56, 23, 61, 53, 60, 47, 3, 58, 74, 31, 40, 7, 30, 42, 68, 73, 4, 63, 66, 19, 11, 51, 52, 49, 44, 10, 55, 35, 0, 25, 14, 50, 71, 69, 15, 6, 9, 28, 54, 32, 12, 59, 39, 26, 43, 48, 38, 34, 57, 72, 24, 22, 27, 29, 21, 5, 65, 41), 1386)
6: ((64, 62, 67, 1, 16, 13, 37, 33, 2, 70, 45, 8, 18, 46, 36, 20, 17, 56, 23, 61, 53, 60, 47, 3, 58, 74, 31, 40, 7, 30, 42, 68, 73, 4, 63, 66, 19, 11, 51, 52, 49, 44, 10, 55, 35, 0, 25, 14, 50, 71, 69, 15, 6, 9, 28, 54, 32, 12, 59, 39, 26, 43, 48, 38, 34, 57, 72, 24, 22, 27, 29, 21, 5, 65, 41), 1386)
7: ((64, 62, 67, 1, 16, 13, 37, 33, 2, 70, 45, 8, 18, 46, 36, 20, 17, 56, 23, 61, 53, 60, 47, 3, 58, 74, 31, 40, 7, 30, 42, 68, 73, 4, 63, 66, 19, 11, 51, 52, 49, 44, 10, 55, 35, 0, 25, 14, 50, 71, 69, 15, 6, 9, 28, 54, 32, 12, 59, 39, 26, 43, 48, 38, 34, 57, 72, 24, 22, 27, 29, 21, 5, 65, 41), 1386)
8: ((64, 62, 67, 1, 16, 13, 37, 33, 2, 70, 45, 8, 18, 46, 36, 20, 17, 56, 23, 61, 53, 60, 47, 3, 58, 74, 31, 40, 7, 30, 42, 68, 73, 4, 63, 66, 19, 11, 51, 52, 49, 44, 10, 55, 35, 0, 25, 14, 50, 71, 69, 15, 6, 9, 28, 54, 32, 12, 59, 39, 26, 43, 48, 38, 34, 57, 72, 24, 22, 27, 29, 21, 5, 65, 41), 1386)
9: ((64, 62, 67, 1, 16, 13, 37, 33, 2, 70, 45, 8, 18, 46, 36, 20, 17, 56, 23, 61, 53, 60, 47, 3, 58, 74, 31, 40, 7, 30, 42, 68, 73, 4, 63, 66, 19, 11, 51, 52, 49, 44, 10, 55, 35, 0, 25, 14, 50, 71, 69, 15, 6, 9, 28, 54, 32, 12, 59, 39, 26, 43, 48, 38, 34, 57, 72, 24, 22, 27, 29, 21, 5, 65, 41), 1386)
10: ((64, 62, 67, 1, 16, 13, 37, 33, 2, 70, 45, 8, 18, 46, 36, 20, 17, 56, 23, 61, 53, 60, 47, 3, 58, 74, 31, 40, 7, 30, 42, 68, 73, 4, 63, 66, 19, 11, 51, 52, 49, 44, 10, 55, 35, 0, 25, 14, 50, 71, 69, 15, 6, 9, 28, 54, 32, 12, 59, 39, 26, 43, 48, 38, 34, 57, 72, 24, 22, 27, 29, 21, 5, 65, 41), 1386)
11: ((64, 62, 67, 1, 16, 13, 37, 33, 2, 70, 45, 8, 18, 46, 36, 20, 17, 56, 23, 61, 53, 60, 47, 3, 58, 74, 31, 40, 7, 30, 42, 68, 73, 4, 63, 66, 19, 11, 51, 52, 49, 44, 10, 55, 35, 0, 25, 14, 50, 71, 69, 15, 6, 9, 28, 54, 32, 12, 59, 39, 26, 43, 48, 38, 34, 57, 72, 24, 22, 27, 29, 21, 5, 65, 41), 1386)
12: ((64, 62, 67, 1, 16, 13, 37, 33, 2, 70, 45, 8, 18, 46, 36, 20, 17, 56, 23, 61, 53, 60, 47, 3, 58, 74, 31, 40, 7, 30, 42, 68, 73, 4, 63, 66, 19, 11, 51, 52, 49, 44, 10, 55, 35, 0, 25, 14, 50, 71, 69, 15, 6, 9, 28, 54, 32, 12, 59, 39, 26, 43, 48, 38, 34, 57, 72, 24, 22, 27, 29, 21, 5, 65, 41), 1386)
13: ((64, 62, 67, 1, 16, 13, 37, 33, 2, 70, 45, 8, 18, 46, 36, 20, 17, 56, 23, 61, 53, 60, 47, 3, 58, 74, 31, 40, 7, 30, 42, 68, 73, 4, 63, 66, 19, 11, 51, 52, 49, 44, 10, 55, 35, 0, 25, 14, 50, 71, 69, 15, 6, 9, 28, 54, 32, 12, 59, 39, 26, 43, 48, 38, 34, 57, 72, 24, 22, 27, 29, 21, 5, 65, 41), 1386)
14: ((64, 62, 67, 1, 16, 13, 37, 33, 2, 70, 45, 8, 18, 46, 36, 20, 17, 56, 23, 61, 53, 60, 47, 3, 58, 74, 31, 40, 7, 30, 42, 68, 73, 4, 63, 66, 19, 11, 51, 52, 49, 44, 10, 55, 35, 0, 25, 14, 50, 71, 69, 15, 6, 9, 28, 54, 32, 12, 59, 39, 26, 43, 48, 38, 34, 57, 72, 24, 22, 27, 29, 21, 5, 65, 41), 1386)
15: ((64, 62, 67, 1, 16, 13, 37, 33, 2, 70, 45, 8, 18, 46, 36, 20, 17, 56, 23, 61, 53, 60, 47, 3, 58, 74, 31, 40, 7, 30, 42, 68, 73, 4, 63, 66, 19, 11, 51, 52, 49, 44, 10, 55, 35, 0, 25, 14, 50, 71, 69, 15, 6, 9, 28, 54, 32, 12, 59, 39, 26, 43, 48, 38, 34, 57, 72, 24, 22, 27, 29, 21, 5, 65, 41), 1386)
16: ((64, 62, 67, 1, 16, 13, 37, 33, 2, 70, 45, 8, 18, 46, 36, 20, 17, 56, 23, 61, 53, 60, 47, 3, 58, 74, 31, 40, 7, 30, 42, 68, 73, 4, 63, 66, 19, 11, 51, 52, 49, 44, 10, 55, 35, 0, 25, 14, 50, 71, 69, 15, 6, 9, 28, 54, 32, 12, 59, 39, 26, 43, 48, 38, 34, 57, 72, 24, 22, 27, 29, 21, 5, 65, 41), 1386)
17: ((64, 62, 67, 1, 16, 13, 37, 33, 2, 70, 45, 8, 18, 46, 36, 20, 17, 56, 23, 61, 53, 60, 47, 3, 58, 74, 31, 40, 7, 30, 42, 68, 73, 4, 63, 66, 19, 11, 51, 52, 49, 44, 10, 55, 35, 0, 25, 14, 50, 71, 69, 15, 6, 9, 28, 54, 32, 12, 59, 39, 26, 43, 48, 38, 34, 57, 72, 24, 22, 27, 29, 21, 5, 65, 41), 1386)
18: ((64, 62, 67, 1, 16, 13, 37, 33, 2, 70, 45, 8, 18, 46, 36, 20, 17, 56, 23, 61, 53, 60, 47, 3, 58, 74, 31, 40, 7, 30, 42, 68, 73, 4, 63, 66, 19, 11, 51, 52, 49, 44, 10, 55, 35, 0, 25, 14, 50, 71, 69, 15, 6, 9, 28, 54, 32, 12, 59, 39, 26, 43, 48, 38, 34, 57, 72, 24, 22, 27, 29, 21, 5, 65, 41), 1386)
19: ((64, 62, 67, 1, 16, 13, 37, 33, 2, 70, 45, 8, 18, 46, 36, 20, 17, 56, 23, 61, 53, 60, 47, 3, 58, 74, 31, 40, 7, 30, 42, 68, 73, 4, 63, 66, 19, 11, 51, 52, 49, 44, 10, 55, 35, 0, 25, 14, 50, 71, 69, 15, 6, 9, 28, 54, 32, 12, 59, 39, 26, 43, 48, 38, 34, 57, 72, 24, 22, 27, 29, 21, 5, 65, 41), 1386)
20: ((64, 62, 67, 1, 16, 13, 37, 33, 2, 70, 45, 8, 18, 46, 36, 20, 17, 56, 23, 61, 53, 60, 47, 3, 58, 74, 31, 40, 7, 30, 42, 68, 73, 4, 63, 66, 19, 11, 51, 52, 49, 44, 10, 55, 35, 0, 25, 14, 50, 71, 69, 15, 6, 9, 28, 54, 32, 12, 59, 39, 26, 43, 48, 38, 34, 57, 72, 24, 22, 27, 29, 21, 5, 65, 41), 1386)
21: ((64, 62, 67, 1, 16, 13, 37, 33, 2, 70, 45, 8, 18, 46, 36, 20, 17, 56, 23, 61, 53, 60, 47, 3, 58, 74, 31, 40, 7, 30, 42, 68, 73, 4, 63, 66, 19, 11, 51, 52, 49, 44, 10, 55, 35, 0, 25, 14, 50, 71, 69, 15, 6, 9, 28, 54, 32, 12, 59, 39, 26, 43, 48, 38, 34, 57, 72, 24, 22, 27, 29, 21, 5, 65, 41), 1386)
22: ((64, 62, 67, 1, 16, 13, 37, 33, 2, 70, 45, 8, 18, 46, 36, 20, 17, 56, 23, 61, 53, 60, 47, 3, 58, 74, 31, 40, 7, 30, 42, 68, 73, 4, 63, 66, 19, 11, 51, 52, 49, 44, 10, 55, 35, 0, 25, 14, 50, 71, 69, 15, 6, 9, 28, 54, 32, 12, 59, 39, 26, 43, 48, 38, 34, 57, 72, 24, 22, 27, 29, 21, 5, 65, 41), 1386)
23: ((64, 62, 67, 1, 16, 13, 37, 33, 2, 70, 45, 8, 18, 46, 36, 20, 17, 56, 23, 61, 53, 60, 47, 3, 58, 74, 31, 40, 7, 30, 42, 68, 73, 4, 63, 66, 19, 11, 51, 52, 49, 44, 10, 55, 35, 0, 25, 14, 50, 71, 69, 15, 6, 9, 28, 54, 32, 12, 59, 39, 26, 43, 48, 38, 34, 57, 72, 24, 22, 27, 29, 21, 5, 65, 41), 1386)
24: ((64, 62, 67, 1, 16, 13, 37, 33, 2, 70, 45, 8, 18, 46, 36, 20, 17, 56, 23, 61, 53, 60, 47, 3, 58, 74, 31, 40, 7, 30, 42, 68, 73, 4, 63, 66, 19, 11, 51, 52, 49, 44, 10, 55, 35, 0, 25, 14, 50, 71, 69, 15, 6, 9, 28, 54, 32, 12, 59, 39, 26, 43, 48, 38, 34, 57, 72, 24, 22, 27, 29, 21, 5, 65, 41), 1386)
25: ((64, 62, 67, 1, 16, 13, 37, 33, 2, 70, 45, 8, 18, 46, 36, 20, 17, 56, 23, 61, 53, 60, 47, 3, 58, 74, 31, 40, 7, 30, 42, 68, 73, 4, 63, 66, 19, 11, 51, 52, 49, 44, 10, 55, 35, 0, 25, 14, 50, 71, 69, 15, 6, 9, 28, 54, 32, 12, 59, 39, 26, 43, 48, 38, 34, 57, 72, 24, 22, 27, 29, 21, 5, 65, 41), 1386)
26: ((64, 62, 67, 1, 16, 13, 37, 33, 2, 70, 45, 8, 18, 46, 36, 20, 17, 56, 23, 61, 53, 60, 47, 3, 58, 74, 31, 40, 7, 30, 42, 68, 73, 4, 63, 66, 19, 11, 51, 52, 49, 44, 10, 55, 35, 0, 25, 14, 50, 71, 69, 15, 6, 9, 28, 54, 32, 12, 59, 39, 26, 43, 48, 38, 34, 57, 72, 24, 22, 27, 29, 21, 5, 65, 41), 1386)
27: ((64, 62, 67, 1, 16, 13, 37, 33, 2, 70, 45, 8, 18, 46, 36, 20, 17, 56, 23, 61, 53, 60, 47, 3, 58, 74, 31, 40, 7, 30, 42, 68, 73, 4, 63, 66, 19, 11, 51, 52, 49, 44, 10, 55, 35, 0, 25, 14, 50, 71, 69, 15, 6, 9, 28, 54, 32, 12, 59, 39, 26, 43, 48, 38, 34, 57, 72, 24, 22, 27, 29, 21, 5, 65, 41), 1386)
28: ((64, 62, 67, 1, 16, 13, 37, 33, 2, 70, 45, 8, 18, 46, 36, 20, 17, 56, 23, 61, 53, 60, 47, 3, 58, 74, 31, 40, 7, 30, 42, 68, 73, 4, 63, 66, 19, 11, 51, 52, 49, 44, 10, 55, 35, 0, 25, 14, 50, 71, 69, 15, 6, 9, 28, 54, 32, 12, 59, 39, 26, 43, 48, 38, 34, 57, 72, 24, 22, 27, 29, 21, 5, 65, 41), 1386)
29: ((64, 62, 67, 1, 16, 13, 37, 33, 2, 70, 45, 8, 18, 46, 36, 20, 17, 56, 23, 61, 53, 60, 47, 3, 58, 74, 31, 40, 7, 30, 42, 68, 73, 4, 63, 66, 19, 11, 51, 52, 49, 44, 10, 55, 35, 0, 25, 14, 50, 71, 69, 15, 6, 9, 28, 54, 32, 12, 59, 39, 26, 43, 48, 38, 34, 57, 72, 24, 22, 27, 29, 21, 5, 65, 41), 1386)
30: ((64, 62, 67, 1, 16, 13, 37, 33, 2, 70, 45, 8, 18, 46, 36, 20, 17, 56, 23, 61, 53, 60, 47, 3, 58, 74, 31, 40, 7, 30, 42, 68, 73, 4, 63, 66, 19, 11, 51, 52, 49, 44, 10, 55, 35, 0, 25, 14, 50, 71, 69, 15, 6, 9, 28, 54, 32, 12, 59, 39, 26, 43, 48, 38, 34, 57, 72, 24, 22, 27, 29, 21, 5, 65, 41), 1386)
31: ((64, 62, 67, 1, 16, 13, 37, 33, 2, 70, 45, 8, 18, 46, 36, 20, 17, 56, 23, 61, 53, 60, 47, 3, 58, 74, 31, 40, 7, 30, 42, 68, 73, 4, 63, 66, 19, 11, 51, 52, 49, 44, 10, 55, 35, 0, 25, 14, 50, 71, 69, 15, 6, 9, 28, 54, 32, 12, 59, 39, 26, 43, 48, 38, 34, 57, 72, 24, 22, 27, 29, 21, 5, 65, 41), 1386)
32: ((64, 62, 67, 1, 16, 13, 37, 33, 2, 70, 45, 8, 18, 46, 36, 20, 17, 56, 23, 61, 53, 60, 47, 3, 58, 74, 31, 40, 7, 30, 42, 68, 73, 4, 63, 66, 19, 11, 51, 52, 49, 44, 10, 55, 35, 0, 25, 14, 50, 71, 69, 15, 6, 9, 28, 54, 32, 12, 59, 39, 26, 43, 48, 38, 34, 57, 72, 24, 22, 27, 29, 21, 5, 65, 41), 1386)
33: ((64, 62, 67, 1, 16, 13, 37, 33, 2, 70, 45, 8, 18, 46, 36, 20, 17, 56, 23, 61, 53, 60, 47, 3, 58, 74, 31, 40, 7, 30, 42, 68, 73, 4, 63, 66, 19, 11, 51, 52, 49, 44, 10, 55, 35, 0, 25, 14, 50, 71, 69, 15, 6, 9, 28, 54, 32, 12, 59, 39, 26, 43, 48, 38, 34, 57, 72, 24, 22, 27, 29, 21, 5, 65, 41), 1386)
34: ((64, 62, 67, 1, 16, 13, 37, 33, 2, 70, 45, 8, 18, 46, 36, 20, 17, 56, 23, 61, 53, 60, 47, 3, 58, 74, 31, 40, 7, 30, 42, 68, 73, 4, 63, 66, 19, 11, 51, 52, 49, 44, 10, 55, 35, 0, 25, 14, 50, 71, 69, 15, 6, 9, 28, 54, 32, 12, 59, 39, 26, 43, 48, 38, 34, 57, 72, 24, 22, 27, 29, 21, 5, 65, 41), 1386)
35: ((64, 62, 67, 1, 16, 13, 37, 33, 2, 70, 45, 8, 18, 46, 36, 20, 17, 56, 23, 61, 53, 60, 47, 3, 58, 74, 31, 40, 7, 30, 42, 68, 73, 4, 63, 66, 19, 11, 51, 52, 49, 44, 10, 55, 35, 0, 25, 14, 50, 71, 69, 15, 6, 9, 28, 54, 32, 12, 59, 39, 26, 43, 48, 38, 34, 57, 72, 24, 22, 27, 29, 21, 5, 65, 41), 1386)
36: ((64, 62, 67, 1, 16, 13, 37, 33, 2, 70, 45, 8, 18, 46, 36, 20, 17, 56, 23, 61, 53, 60, 47, 3, 58, 74, 31, 40, 7, 30, 42, 68, 73, 4, 63, 66, 19, 11, 51, 52, 49, 44, 10, 55, 35, 0, 25, 14, 50, 71, 69, 15, 6, 9, 28, 54, 32, 12, 59, 39, 26, 43, 48, 38, 34, 57, 72, 24, 22, 27, 29, 21, 5, 65, 41), 1386)
37: ((64, 62, 67, 1, 16, 13, 37, 33, 2, 70, 45, 8, 18, 46, 36, 20, 17, 56, 23, 61, 53, 60, 47, 3, 58, 74, 31, 40, 7, 30, 42, 68, 73, 4, 63, 66, 19, 11, 51, 52, 49, 44, 10, 55, 35, 0, 25, 14, 50, 71, 69, 15, 6, 9, 28, 54, 32, 12, 59, 39, 26, 43, 48, 38, 34, 57, 72, 24, 22, 27, 29, 21, 5, 65, 41), 1386)
38: ((64, 62, 67, 1, 16, 13, 37, 33, 2, 70, 45, 8, 18, 46, 36, 20, 17, 56, 23, 61, 53, 60, 47, 3, 58, 74, 31, 40, 7, 30, 42, 68, 73, 4, 63, 66, 19, 11, 51, 52, 49, 44, 10, 55, 35, 0, 25, 14, 50, 71, 69, 15, 6, 9, 28, 54, 32, 12, 59, 39, 26, 43, 48, 38, 34, 57, 72, 24, 22, 27, 29, 21, 5, 65, 41), 1386)
39: ((64, 62, 67, 1, 16, 13, 37, 33, 2, 70, 45, 8, 18, 46, 36, 20, 17, 56, 23, 61, 53, 60, 47, 3, 58, 74, 31, 40, 7, 30, 42, 68, 73, 4, 63, 66, 19, 11, 51, 52, 49, 44, 10, 55, 35, 0, 25, 14, 50, 71, 69, 15, 6, 9, 28, 54, 32, 12, 59, 39, 26, 43, 48, 38, 34, 57, 72, 24, 22, 27, 29, 21, 5, 65, 41), 1386)
40: ((64, 62, 67, 1, 16, 13, 37, 33, 2, 70, 45, 8, 18, 46, 36, 20, 17, 56, 23, 61, 53, 60, 47, 3, 58, 74, 31, 40, 7, 30, 42, 68, 73, 4, 63, 66, 19, 11, 51, 52, 49, 44, 10, 55, 35, 0, 25, 14, 50, 71, 69, 15, 6, 9, 28, 54, 32, 12, 59, 39, 26, 43, 48, 38, 34, 57, 72, 24, 22, 27, 29, 21, 5, 65, 41), 1386)
41: ((64, 62, 67, 1, 16, 13, 37, 33, 2, 70, 45, 8, 18, 46, 36, 20, 17, 56, 23, 61, 53, 60, 47, 3, 58, 74, 31, 40, 7, 30, 42, 68, 73, 4, 63, 66, 19, 11, 51, 52, 49, 44, 10, 55, 35, 0, 25, 14, 50, 71, 69, 15, 6, 9, 28, 54, 32, 12, 59, 39, 26, 43, 48, 38, 34, 57, 72, 24, 22, 27, 29, 21, 5, 65, 41), 1386)
42: ((64, 62, 67, 1, 16, 13, 37, 33, 2, 70, 45, 8, 18, 46, 36, 20, 17, 56, 23, 61, 53, 60, 47, 3, 58, 74, 31, 40, 7, 30, 42, 68, 73, 4, 63, 66, 19, 11, 51, 52, 49, 44, 10, 55, 35, 0, 25, 14, 50, 71, 69, 15, 6, 9, 28, 54, 32, 12, 59, 39, 26, 43, 48, 38, 34, 57, 72, 24, 22, 27, 29, 21, 5, 65, 41), 1386)
43: ((64, 62, 67, 1, 16, 13, 37, 33, 2, 70, 45, 8, 18, 46, 36, 20, 17, 56, 23, 61, 53, 60, 47, 3, 58, 74, 31, 40, 7, 30, 42, 68, 73, 4, 63, 66, 19, 11, 51, 52, 49, 44, 10, 55, 35, 0, 25, 14, 50, 71, 69, 15, 6, 9, 28, 54, 32, 12, 59, 39, 26, 43, 48, 38, 34, 57, 72, 24, 22, 27, 29, 21, 5, 65, 41), 1386)
44: ((64, 62, 67, 1, 16, 13, 37, 33, 2, 70, 45, 8, 18, 46, 36, 20, 17, 56, 23, 61, 53, 60, 47, 3, 58, 74, 31, 40, 7, 30, 42, 68, 73, 4, 63, 66, 19, 11, 51, 52, 49, 44, 10, 55, 35, 0, 25, 14, 50, 71, 69, 15, 6, 9, 28, 54, 32, 12, 59, 39, 26, 43, 48, 38, 34, 57, 72, 24, 22, 27, 29, 21, 5, 65, 41), 1386)
45: ((64, 62, 67, 1, 16, 13, 37, 33, 2, 70, 45, 8, 18, 46, 36, 20, 17, 56, 23, 61, 53, 60, 47, 3, 58, 74, 31, 40, 7, 30, 42, 68, 73, 4, 63, 66, 19, 11, 51, 52, 49, 44, 10, 55, 35, 0, 25, 14, 50, 71, 69, 15, 6, 9, 28, 54, 32, 12, 59, 39, 26, 43, 48, 38, 34, 57, 72, 24, 22, 27, 29, 21, 5, 65, 41), 1386)
46: ((64, 62, 67, 1, 16, 13, 37, 33, 2, 70, 45, 8, 18, 46, 36, 20, 17, 56, 23, 61, 53, 60, 47, 3, 58, 74, 31, 40, 7, 30, 42, 68, 73, 4, 63, 66, 19, 11, 51, 52, 49, 44, 10, 55, 35, 0, 25, 14, 50, 71, 69, 15, 6, 9, 28, 54, 32, 12, 59, 39, 26, 43, 48, 38, 34, 57, 72, 24, 22, 27, 29, 21, 5, 65, 41), 1386)
47: ((64, 62, 67, 1, 16, 13, 37, 33, 2, 70, 45, 8, 18, 46, 36, 20, 17, 56, 23, 61, 53, 60, 47, 3, 58, 74, 31, 40, 7, 30, 42, 68, 73, 4, 63, 66, 19, 11, 51, 52, 49, 44, 10, 55, 35, 0, 25, 14, 50, 71, 69, 15, 6, 9, 28, 54, 32, 12, 59, 39, 26, 43, 48, 38, 34, 57, 72, 24, 22, 27, 29, 21, 5, 65, 41), 1386)
48: ((64, 62, 67, 1, 16, 13, 37, 33, 2, 70, 45, 8, 18, 46, 36, 20, 17, 56, 23, 61, 53, 60, 47, 3, 58, 74, 31, 40, 7, 30, 42, 68, 73, 4, 63, 66, 19, 11, 51, 52, 49, 44, 10, 55, 35, 0, 25, 14, 50, 71, 69, 15, 6, 9, 28, 54, 32, 12, 59, 39, 26, 43, 48, 38, 34, 57, 72, 24, 22, 27, 29, 21, 5, 65, 41), 1386)
49: ((64, 62, 67, 1, 16, 13, 37, 33, 2, 70, 45, 8, 18, 46, 36, 20, 17, 56, 23, 61, 53, 60, 47, 3, 58, 74, 31, 40, 7, 30, 42, 68, 73, 4, 63, 66, 19, 11, 51, 52, 49, 44, 10, 55, 35, 0, 25, 14, 50, 71, 69, 15, 6, 9, 28, 54, 32, 12, 59, 39, 26, 43, 48, 38, 34, 57, 72, 24, 22, 27, 29, 21, 5, 65, 41), 1386)
50: ((64, 62, 67, 1, 16, 13, 37, 33, 2, 70, 45, 8, 18, 46, 36, 20, 17, 56, 23, 61, 53, 60, 47, 3, 58, 74, 31, 40, 7, 30, 42, 68, 73, 4, 63, 66, 19, 11, 51, 52, 49, 44, 10, 55, 35, 0, 25, 14, 50, 71, 69, 15, 6, 9, 28, 54, 32, 12, 59, 39, 26, 43, 48, 38, 34, 57, 72, 24, 22, 27, 29, 21, 5, 65, 41), 1386)
51: ((64, 62, 67, 1, 16, 13, 37, 33, 2, 70, 45, 8, 18, 46, 36, 20, 17, 56, 23, 61, 53, 60, 47, 3, 58, 74, 31, 40, 7, 30, 42, 68, 73, 4, 63, 66, 19, 11, 51, 52, 49, 44, 10, 55, 35, 0, 25, 14, 50, 71, 69, 15, 6, 9, 28, 54, 32, 12, 59, 39, 26, 43, 48, 38, 34, 57, 72, 24, 22, 27, 29, 21, 5, 65, 41), 1386)
52: ((64, 62, 67, 1, 16, 13, 37, 33, 2, 70, 45, 8, 18, 46, 36, 20, 17, 56, 23, 61, 53, 60, 47, 3, 58, 74, 31, 40, 7, 30, 42, 68, 73, 4, 63, 66, 19, 11, 51, 52, 49, 44, 10, 55, 35, 0, 25, 14, 50, 71, 69, 15, 6, 9, 28, 54, 32, 12, 59, 39, 26, 43, 48, 38, 34, 57, 72, 24, 22, 27, 29, 21, 5, 65, 41), 1386)
53: ((64, 62, 67, 1, 16, 13, 37, 33, 2, 70, 45, 8, 18, 46, 36, 20, 17, 56, 23, 61, 53, 60, 47, 3, 58, 74, 31, 40, 7, 30, 42, 68, 73, 4, 63, 66, 19, 11, 51, 52, 49, 44, 10, 55, 35, 0, 25, 14, 50, 71, 69, 15, 6, 9, 28, 54, 32, 12, 59, 39, 26, 43, 48, 38, 34, 57, 72, 24, 22, 27, 29, 21, 5, 65, 41), 1386)
54: ((64, 62, 67, 1, 16, 13, 37, 33, 2, 70, 45, 8, 18, 46, 36, 20, 17, 56, 23, 61, 53, 60, 47, 3, 58, 74, 31, 40, 7, 30, 42, 68, 73, 4, 63, 66, 19, 11, 51, 52, 49, 44, 10, 55, 35, 0, 25, 14, 50, 71, 69, 15, 6, 9, 28, 54, 32, 12, 59, 39, 26, 43, 48, 38, 34, 57, 72, 24, 22, 27, 29, 21, 5, 65, 41), 1386)
55: ((64, 62, 67, 1, 16, 13, 37, 33, 2, 70, 45, 8, 18, 46, 36, 20, 17, 56, 23, 61, 53, 60, 47, 3, 58, 74, 31, 40, 7, 30, 42, 68, 73, 4, 63, 66, 19, 11, 51, 52, 49, 44, 10, 55, 35, 0, 25, 14, 50, 71, 69, 15, 6, 9, 28, 54, 32, 12, 59, 39, 26, 43, 48, 38, 34, 57, 72, 24, 22, 27, 29, 21, 5, 65, 41), 1386)
56: ((64, 62, 67, 1, 16, 13, 37, 33, 2, 70, 45, 8, 18, 46, 36, 20, 17, 56, 23, 61, 53, 60, 47, 3, 58, 74, 31, 40, 7, 30, 42, 68, 73, 4, 63, 66, 19, 11, 51, 52, 49, 44, 10, 55, 35, 0, 25, 14, 50, 71, 69, 15, 6, 9, 28, 54, 32, 12, 59, 39, 26, 43, 48, 38, 34, 57, 72, 24, 22, 27, 29, 21, 5, 65, 41), 1386)
57: ((64, 62, 67, 1, 16, 13, 37, 33, 2, 70, 45, 8, 18, 46, 36, 20, 17, 56, 23, 61, 53, 60, 47, 3, 58, 74, 31, 40, 7, 30, 42, 68, 73, 4, 63, 66, 19, 11, 51, 52, 49, 44, 10, 55, 35, 0, 25, 14, 50, 71, 69, 15, 6, 9, 28, 54, 32, 12, 59, 39, 26, 43, 48, 38, 34, 57, 72, 24, 22, 27, 29, 21, 5, 65, 41), 1386)
58: ((64, 62, 67, 1, 16, 13, 37, 33, 2, 70, 45, 8, 18, 46, 36, 20, 17, 56, 23, 61, 53, 60, 47, 3, 58, 74, 31, 40, 7, 30, 42, 68, 73, 4, 63, 66, 19, 11, 51, 52, 49, 44, 10, 55, 35, 0, 25, 14, 50, 71, 69, 15, 6, 9, 28, 54, 32, 12, 59, 39, 26, 43, 48, 38, 34, 57, 72, 24, 22, 27, 29, 21, 5, 65, 41), 1386)
59: ((64, 62, 67, 1, 16, 13, 37, 33, 2, 70, 45, 8, 18, 46, 36, 20, 17, 56, 23, 61, 53, 60, 47, 3, 58, 74, 31, 40, 7, 30, 42, 68, 73, 4, 63, 66, 19, 11, 51, 52, 49, 44, 10, 55, 35, 0, 25, 14, 50, 71, 69, 15, 6, 9, 28, 54, 32, 12, 59, 39, 26, 43, 48, 38, 34, 57, 72, 24, 22, 27, 29, 21, 5, 65, 41), 1386)
60: ((64, 62, 67, 1, 16, 13, 37, 33, 2, 70, 45, 8, 18, 46, 36, 20, 17, 56, 23, 61, 53, 60, 47, 3, 58, 74, 31, 40, 7, 30, 42, 68, 73, 4, 63, 66, 19, 11, 51, 52, 49, 44, 10, 55, 35, 0, 25, 14, 50, 71, 69, 15, 6, 9, 28, 54, 32, 12, 59, 39, 26, 43, 48, 38, 34, 57, 72, 24, 22, 27, 29, 21, 5, 65, 41), 1386)
61: ((64, 62, 67, 1, 16, 13, 37, 33, 2, 70, 45, 8, 18, 46, 36, 20, 17, 56, 23, 61, 53, 60, 47, 3, 58, 74, 31, 40, 7, 30, 42, 68, 73, 4, 63, 66, 19, 11, 51, 52, 49, 44, 10, 55, 35, 0, 25, 14, 50, 71, 69, 15, 6, 9, 28, 54, 32, 12, 59, 39, 26, 43, 48, 38, 34, 57, 72, 24, 22, 27, 29, 21, 5, 65, 41), 1386)
62: ((64, 62, 67, 1, 16, 13, 37, 33, 2, 70, 45, 8, 18, 46, 36, 20, 17, 56, 23, 61, 53, 60, 47, 3, 58, 74, 31, 40, 7, 30, 42, 68, 73, 4, 63, 66, 19, 11, 51, 52, 49, 44, 10, 55, 35, 0, 25, 14, 50, 71, 69, 15, 6, 9, 28, 54, 32, 12, 59, 39, 26, 43, 48, 38, 34, 57, 72, 24, 22, 27, 29, 21, 5, 65, 41), 1386)
63: ((64, 62, 67, 1, 16, 13, 37, 33, 2, 70, 45, 8, 18, 46, 36, 20, 17, 56, 23, 61, 53, 60, 47, 3, 58, 74, 31, 40, 7, 30, 42, 68, 73, 4, 63, 66, 19, 11, 51, 52, 49, 44, 10, 55, 35, 0, 25, 14, 50, 71, 69, 15, 6, 9, 28, 54, 32, 12, 59, 39, 26, 43, 48, 38, 34, 57, 72, 24, 22, 27, 29, 21, 5, 65, 41), 1386)
64: ((64, 62, 67, 1, 16, 13, 37, 33, 2, 70, 45, 8, 18, 46, 36, 20, 17, 56, 23, 61, 53, 60, 47, 3, 58, 74, 31, 40, 7, 30, 42, 68, 73, 4, 63, 66, 19, 11, 51, 52, 49, 44, 10, 55, 35, 0, 25, 14, 50, 71, 69, 15, 6, 9, 28, 54, 32, 12, 59, 39, 26, 43, 48, 38, 34, 57, 72, 24, 22, 27, 29, 21, 5, 65, 41), 1386)
65: ((64, 62, 67, 1, 16, 13, 37, 33, 2, 70, 45, 8, 18, 46, 36, 20, 17, 56, 23, 61, 53, 60, 47, 3, 58, 74, 31, 40, 7, 30, 42, 68, 73, 4, 63, 66, 19, 11, 51, 52, 49, 44, 10, 55, 35, 0, 25, 14, 50, 71, 69, 15, 6, 9, 28, 54, 32, 12, 59, 39, 26, 43, 48, 38, 34, 57, 72, 24, 22, 27, 29, 21, 5, 65, 41), 1386)
66: ((64, 62, 67, 1, 16, 13, 37, 33, 2, 70, 45, 8, 18, 46, 36, 20, 17, 56, 23, 61, 53, 60, 47, 3, 58, 74, 31, 40, 7, 30, 42, 68, 73, 4, 63, 66, 19, 11, 51, 52, 49, 44, 10, 55, 35, 0, 25, 14, 50, 71, 69, 15, 6, 9, 28, 54, 32, 12, 59, 39, 26, 43, 48, 38, 34, 57, 72, 24, 22, 27, 29, 21, 5, 65, 41), 1386)
67: ((64, 62, 67, 1, 16, 13, 37, 33, 2, 70, 45, 8, 18, 46, 36, 20, 17, 56, 23, 61, 53, 60, 47, 3, 58, 74, 31, 40, 7, 30, 42, 68, 73, 4, 63, 66, 19, 11, 51, 52, 49, 44, 10, 55, 35, 0, 25, 14, 50, 71, 69, 15, 6, 9, 28, 54, 32, 12, 59, 39, 26, 43, 48, 38, 34, 57, 72, 24, 22, 27, 29, 21, 5, 65, 41), 1386)
68: ((64, 62, 67, 1, 16, 13, 37, 33, 2, 70, 45, 8, 18, 46, 36, 20, 17, 56, 23, 61, 53, 60, 47, 3, 58, 74, 31, 40, 7, 30, 42, 68, 73, 4, 63, 66, 19, 11, 51, 52, 49, 44, 10, 55, 35, 0, 25, 14, 50, 71, 69, 15, 6, 9, 28, 54, 32, 12, 59, 39, 26, 43, 48, 38, 34, 57, 72, 24, 22, 27, 29, 21, 5, 65, 41), 1386)
69: ((64, 62, 67, 1, 16, 13, 37, 33, 2, 70, 45, 8, 18, 46, 36, 20, 17, 56, 23, 61, 53, 60, 47, 3, 58, 74, 31, 40, 7, 30, 42, 68, 73, 4, 63, 66, 19, 11, 51, 52, 49, 44, 10, 55, 35, 0, 25, 14, 50, 71, 69, 15, 6, 9, 28, 54, 32, 12, 59, 39, 26, 43, 48, 38, 34, 57, 72, 24, 22, 27, 29, 21, 5, 65, 41), 1386)
70: ((64, 62, 67, 1, 16, 13, 37, 33, 2, 70, 45, 8, 18, 46, 36, 20, 17, 56, 23, 61, 53, 60, 47, 3, 58, 74, 31, 40, 7, 30, 42, 68, 73, 4, 63, 66, 19, 11, 51, 52, 49, 44, 10, 55, 35, 0, 25, 14, 50, 71, 69, 15, 6, 9, 28, 54, 32, 12, 59, 39, 26, 43, 48, 38, 34, 57, 72, 24, 22, 27, 29, 21, 5, 65, 41), 1386)
71: ((64, 62, 67, 1, 16, 13, 37, 33, 2, 70, 45, 8, 18, 46, 36, 20, 17, 56, 23, 61, 53, 60, 47, 3, 58, 74, 31, 40, 7, 30, 42, 68, 73, 4, 63, 66, 19, 11, 51, 52, 49, 44, 10, 55, 35, 0, 25, 14, 50, 71, 69, 15, 6, 9, 28, 54, 32, 12, 59, 39, 26, 43, 48, 38, 34, 57, 72, 24, 22, 27, 29, 21, 5, 65, 41), 1386)
72: ((64, 62, 67, 1, 16, 13, 37, 33, 2, 70, 45, 8, 18, 46, 36, 20, 17, 56, 23, 61, 53, 60, 47, 3, 58, 74, 31, 40, 7, 30, 42, 68, 73, 4, 63, 66, 19, 11, 51, 52, 49, 44, 10, 55, 35, 0, 25, 14, 50, 71, 69, 15, 6, 9, 28, 54, 32, 12, 59, 39, 26, 43, 48, 38, 34, 57, 72, 24, 22, 27, 29, 21, 5, 65, 41), 1386)
73: ((64, 62, 67, 1, 16, 13, 37, 33, 2, 70, 45, 8, 18, 46, 36, 20, 17, 56, 23, 61, 53, 60, 47, 3, 58, 74, 31, 40, 7, 30, 42, 68, 73, 4, 63, 66, 19, 11, 51, 52, 49, 44, 10, 55, 35, 0, 25, 14, 50, 71, 69, 15, 6, 9, 28, 54, 32, 12, 59, 39, 26, 43, 48, 38, 34, 57, 72, 24, 22, 27, 29, 21, 5, 65, 41), 1386)
74: ((64, 62, 67, 1, 16, 13, 37, 33, 2, 70, 45, 8, 18, 46, 36, 20, 17, 56, 23, 61, 53, 60, 47, 3, 58, 74, 31, 40, 7, 30, 42, 68, 73, 4, 63, 66, 19, 11, 51, 52, 49, 44, 10, 55, 35, 0, 25, 14, 50, 71, 69, 15, 6, 9, 28, 54, 32, 12, 59, 39, 26, 43, 48, 38, 34, 57, 72, 24, 22, 27, 29, 21, 5, 65, 41), 1386)
75: ((64, 62, 67, 1, 16, 13, 37, 33, 2, 70, 45, 8, 18, 46, 36, 20, 17, 56, 23, 61, 53, 60, 47, 3, 58, 74, 31, 40, 7, 30, 42, 68, 73, 4, 63, 66, 19, 11, 51, 52, 49, 44, 10, 55, 35, 0, 25, 14, 50, 71, 69, 15, 6, 9, 28, 54, 32, 12, 59, 39, 26, 43, 48, 38, 34, 57, 72, 24, 22, 27, 29, 21, 5, 65, 41), 1386)
76: ((64, 62, 67, 1, 16, 13, 37, 33, 2, 70, 45, 8, 18, 46, 36, 20, 17, 56, 23, 61, 53, 60, 47, 3, 58, 74, 31, 40, 7, 30, 42, 68, 73, 4, 63, 66, 19, 11, 51, 52, 49, 44, 10, 55, 35, 0, 25, 14, 50, 71, 69, 15, 6, 9, 28, 54, 32, 12, 59, 39, 26, 43, 48, 38, 34, 57, 72, 24, 22, 27, 29, 21, 5, 65, 41), 1386)
77: ((64, 62, 67, 1, 16, 13, 37, 33, 2, 70, 45, 8, 18, 46, 36, 20, 17, 56, 23, 61, 53, 60, 47, 3, 58, 74, 31, 40, 7, 30, 42, 68, 73, 4, 63, 66, 19, 11, 51, 52, 49, 44, 10, 55, 35, 0, 25, 14, 50, 71, 69, 15, 6, 9, 28, 54, 32, 12, 59, 39, 26, 43, 48, 38, 34, 57, 72, 24, 22, 27, 29, 21, 5, 65, 41), 1386)
78: ((64, 62, 67, 1, 16, 13, 37, 33, 2, 70, 45, 8, 18, 46, 36, 20, 17, 56, 23, 61, 53, 60, 47, 3, 58, 74, 31, 40, 7, 30, 42, 68, 73, 4, 63, 66, 19, 11, 51, 52, 49, 44, 10, 55, 35, 0, 25, 14, 50, 71, 69, 15, 6, 9, 28, 54, 32, 12, 59, 39, 26, 43, 48, 38, 34, 57, 72, 24, 22, 27, 29, 21, 5, 65, 41), 1386)
79: ((64, 62, 67, 1, 16, 13, 37, 33, 2, 70, 45, 8, 18, 46, 36, 20, 17, 56, 23, 61, 53, 60, 47, 3, 58, 74, 31, 40, 7, 30, 42, 68, 73, 4, 63, 66, 19, 11, 51, 52, 49, 44, 10, 55, 35, 0, 25, 14, 50, 71, 69, 15, 6, 9, 28, 54, 32, 12, 59, 39, 26, 43, 48, 38, 34, 57, 72, 24, 22, 27, 29, 21, 5, 65, 41), 1386)
80: ((64, 62, 67, 1, 16, 13, 37, 33, 2, 70, 45, 8, 18, 46, 36, 20, 17, 56, 23, 61, 53, 60, 47, 3, 58, 74, 31, 40, 7, 30, 42, 68, 73, 4, 63, 66, 19, 11, 51, 52, 49, 44, 10, 55, 35, 0, 25, 14, 50, 71, 69, 15, 6, 9, 28, 54, 32, 12, 59, 39, 26, 43, 48, 38, 34, 57, 72, 24, 22, 27, 29, 21, 5, 65, 41), 1386)
81: ((64, 62, 67, 1, 16, 13, 37, 33, 2, 70, 45, 8, 18, 46, 36, 20, 17, 56, 23, 61, 53, 60, 47, 3, 58, 74, 31, 40, 7, 30, 42, 68, 73, 4, 63, 66, 19, 11, 51, 52, 49, 44, 10, 55, 35, 0, 25, 14, 50, 71, 69, 15, 6, 9, 28, 54, 32, 12, 59, 39, 26, 43, 48, 38, 34, 57, 72, 24, 22, 27, 29, 21, 5, 65, 41), 1386)
82: ((64, 62, 67, 1, 16, 13, 37, 33, 2, 70, 45, 8, 18, 46, 36, 20, 17, 56, 23, 61, 53, 60, 47, 3, 58, 74, 31, 40, 7, 30, 42, 68, 73, 4, 63, 66, 19, 11, 51, 52, 49, 44, 10, 55, 35, 0, 25, 14, 50, 71, 69, 15, 6, 9, 28, 54, 32, 12, 59, 39, 26, 43, 48, 38, 34, 57, 72, 24, 22, 27, 29, 21, 5, 65, 41), 1386)
83: ((64, 62, 67, 1, 16, 13, 37, 33, 2, 70, 45, 8, 18, 46, 36, 20, 17, 56, 23, 61, 53, 60, 47, 3, 58, 74, 31, 40, 7, 30, 42, 68, 73, 4, 63, 66, 19, 11, 51, 52, 49, 44, 10, 55, 35, 0, 25, 14, 50, 71, 69, 15, 6, 9, 28, 54, 32, 12, 59, 39, 26, 43, 48, 38, 34, 57, 72, 24, 22, 27, 29, 21, 5, 65, 41), 1386)
84: ((64, 62, 67, 1, 16, 13, 37, 33, 2, 70, 45, 8, 18, 46, 36, 20, 17, 56, 23, 61, 53, 60, 47, 3, 58, 74, 31, 40, 7, 30, 42, 68, 73, 4, 63, 66, 19, 11, 51, 52, 49, 44, 10, 55, 35, 0, 25, 14, 50, 71, 69, 15, 6, 9, 28, 54, 32, 12, 59, 39, 26, 43, 48, 38, 34, 57, 72, 24, 22, 27, 29, 21, 5, 65, 41), 1386)
85: ((64, 62, 67, 1, 16, 13, 37, 33, 2, 70, 45, 8, 18, 46, 36, 20, 17, 56, 23, 61, 53, 60, 47, 3, 58, 74, 31, 40, 7, 30, 42, 68, 73, 4, 63, 66, 19, 11, 51, 52, 49, 44, 10, 55, 35, 0, 25, 14, 50, 71, 69, 15, 6, 9, 28, 54, 32, 12, 59, 39, 26, 43, 48, 38, 34, 57, 72, 24, 22, 27, 29, 21, 5, 65, 41), 1386)
86: ((64, 62, 67, 1, 16, 13, 37, 33, 2, 70, 45, 8, 18, 46, 36, 20, 17, 56, 23, 61, 53, 60, 47, 3, 58, 74, 31, 40, 7, 30, 42, 68, 73, 4, 63, 66, 19, 11, 51, 52, 49, 44, 10, 55, 35, 0, 25, 14, 50, 71, 69, 15, 6, 9, 28, 54, 32, 12, 59, 39, 26, 43, 48, 38, 34, 57, 72, 24, 22, 27, 29, 21, 5, 65, 41), 1386)
87: ((64, 62, 67, 1, 16, 13, 37, 33, 2, 70, 45, 8, 18, 46, 36, 20, 17, 56, 23, 61, 53, 60, 47, 3, 58, 74, 31, 40, 7, 30, 42, 68, 73, 4, 63, 66, 19, 11, 51, 52, 49, 44, 10, 55, 35, 0, 25, 14, 50, 71, 69, 15, 6, 9, 28, 54, 32, 12, 59, 39, 26, 43, 48, 38, 34, 57, 72, 24, 22, 27, 29, 21, 5, 65, 41), 1386)
88: ((64, 62, 67, 1, 16, 13, 37, 33, 2, 70, 45, 8, 18, 46, 36, 20, 17, 56, 23, 61, 53, 60, 47, 3, 58, 74, 31, 40, 7, 30, 42, 68, 73, 4, 63, 66, 19, 11, 51, 52, 49, 44, 10, 55, 35, 0, 25, 14, 50, 71, 69, 15, 6, 9, 28, 54, 32, 12, 59, 39, 26, 43, 48, 38, 34, 57, 72, 24, 22, 27, 29, 21, 5, 65, 41), 1386)
89: ((64, 62, 67, 1, 16, 13, 37, 33, 2, 70, 45, 8, 18, 46, 36, 20, 17, 56, 23, 61, 53, 60, 47, 3, 58, 74, 31, 40, 7, 30, 42, 68, 73, 4, 63, 66, 19, 11, 51, 52, 49, 44, 10, 55, 35, 0, 25, 14, 50, 71, 69, 15, 6, 9, 28, 54, 32, 12, 59, 39, 26, 43, 48, 38, 34, 57, 72, 24, 22, 27, 29, 21, 5, 65, 41), 1386)
90: ((64, 62, 67, 1, 16, 13, 37, 33, 2, 70, 45, 8, 18, 46, 36, 20, 17, 56, 23, 61, 53, 60, 47, 3, 58, 74, 31, 40, 7, 30, 42, 68, 73, 4, 63, 66, 19, 11, 51, 52, 49, 44, 10, 55, 35, 0, 25, 14, 50, 71, 69, 15, 6, 9, 28, 54, 32, 12, 59, 39, 26, 43, 48, 38, 34, 57, 72, 24, 22, 27, 29, 21, 5, 65, 41), 1386)
91: ((64, 62, 67, 1, 16, 13, 37, 33, 2, 70, 45, 8, 18, 46, 36, 20, 17, 56, 23, 61, 53, 60, 47, 3, 58, 74, 31, 40, 7, 30, 42, 68, 73, 4, 63, 66, 19, 11, 51, 52, 49, 44, 10, 55, 35, 0, 25, 14, 50, 71, 69, 15, 6, 9, 28, 54, 32, 12, 59, 39, 26, 43, 48, 38, 34, 57, 72, 24, 22, 27, 29, 21, 5, 65, 41), 1386)
92: ((64, 62, 67, 1, 16, 13, 37, 33, 2, 70, 45, 8, 18, 46, 36, 20, 17, 56, 23, 61, 53, 60, 47, 3, 58, 74, 31, 40, 7, 30, 42, 68, 73, 4, 63, 66, 19, 11, 51, 52, 49, 44, 10, 55, 35, 0, 25, 14, 50, 71, 69, 15, 6, 9, 28, 54, 32, 12, 59, 39, 26, 43, 48, 38, 34, 57, 72, 24, 22, 27, 29, 21, 5, 65, 41), 1386)
93: ((64, 62, 67, 1, 16, 13, 37, 33, 2, 70, 45, 8, 18, 46, 36, 20, 17, 56, 23, 61, 53, 60, 47, 3, 58, 74, 31, 40, 7, 30, 42, 68, 73, 4, 63, 66, 19, 11, 51, 52, 49, 44, 10, 55, 35, 0, 25, 14, 50, 71, 69, 15, 6, 9, 28, 54, 32, 12, 59, 39, 26, 43, 48, 38, 34, 57, 72, 24, 22, 27, 29, 21, 5, 65, 41), 1386)
94: ((64, 62, 67, 1, 16, 13, 37, 33, 2, 70, 45, 8, 18, 46, 36, 20, 17, 56, 23, 61, 53, 60, 47, 3, 58, 74, 31, 40, 7, 30, 42, 68, 73, 4, 63, 66, 19, 11, 51, 52, 49, 44, 10, 55, 35, 0, 25, 14, 50, 71, 69, 15, 6, 9, 28, 54, 32, 12, 59, 39, 26, 43, 48, 38, 34, 57, 72, 24, 22, 27, 29, 21, 5, 65, 41), 1386)
95: ((64, 62, 67, 1, 16, 13, 37, 33, 2, 70, 45, 8, 18, 46, 36, 20, 17, 56, 23, 61, 53, 60, 47, 3, 58, 74, 31, 40, 7, 30, 42, 68, 73, 4, 63, 66, 19, 11, 51, 52, 49, 44, 10, 55, 35, 0, 25, 14, 50, 71, 69, 15, 6, 9, 28, 54, 32, 12, 59, 39, 26, 43, 48, 38, 34, 57, 72, 24, 22, 27, 29, 21, 5, 65, 41), 1386)
Best: ((64, 62, 67, 1, 16, 13, 37, 33, 2, 70, 45, 8, 18, 46, 36, 20, 17, 56, 23, 61, 53, 60, 47, 3, 58, 74, 31, 40, 7, 30, 42, 68, 73, 4, 63, 66, 19, 11, 51, 52, 49, 44, 10, 55, 35, 0, 25, 14, 50, 71, 69, 15, 6, 9, 28, 54, 32, 12, 59, 39, 26, 43, 48, 38, 34, 57, 72, 24, 22, 27, 29, 21, 5, 65, 41), 1386)
Runtime: 24.816892300000003 s